45
1 0 7
2 0 2
2 1 1
3 0 1
3 1 2
3 2 5
4 0 2
4 1 9
4 2 9
4 3 9
5 0 8
5 1 4
5 2 2
5 3 4
5 4 8
6 0 3
6 1 9
6 2 3
6 3 8
6 4 10
6 5 10
7 0 4
7 1 1
7 2 4
7 3 1
7 4 1
7 5 6
7 6 4
8 0 8
8 1 7
8 2 9
8 3 1
8 4 7
8 5 7
8 6 7
8 7 1
9 0 4
9 1 8
9 2 10
9 3 9
9 4 1
9 5 3
9 6 1
9 7 1
9 8 8
10 0 10
10 1 1
10 2 4
10 3 5
10 4 9
10 5 3
10 6 6
10 7 7
10 8 10
10 9 4
11 0 2
11 1 1
11 2 5
11 3 2
11 4 3
11 5 10
11 6 7
11 7 8
11 8 6
11 9 9
11 10 10
12 0 4
12 1 6
12 2 3
12 3 1
12 4 9
12 5 4
12 6 9
12 7 6
12 8 7
12 9 4
12 10 5
12 11 8
13 0 7
13 1 2
13 2 5
13 3 2
13 4 3
13 5 7
13 6 9
13 7 1
13 8 6
13 9 10
13 10 1
13 11 8
13 12 7
14 0 4
14 1 6
14 2 8
14 3 8
14 4 9
14 5 3
14 6 5
14 7 1
14 8 7
14 9 3
14 10 3
14 11 10
14 12 9
14 13 6
15 0 7
15 1 3
15 2 7
15 3 10
15 4 4
15 5 2
15 6 8
15 7 2
15 8 6
15 9 5
15 10 10
15 11 10
15 12 7
15 13 8
15 14 6
16 0 1
16 1 3
16 2 8
16 3 4
16 4 7
16 5 2
16 6 8
16 7 9
16 8 9
16 9 4
16 10 5
16 11 1
16 12 4
16 13 10
16 14 2
16 15 1
17 0 4
17 1 9
17 2 2
17 3 3
17 4 9
17 5 5
17 6 6
17 7 7
17 8 9
17 9 8
17 10 5
17 11 4
17 12 3
17 13 10
17 14 10
17 15 5
17 16 2
18 0 9
18 1 3
18 2 1
18 3 10
18 4 8
18 5 1
18 6 4
18 7 6
18 8 3
18 9 1
18 10 6
18 11 4
18 12 3
18 13 9
18 14 10
18 15 6
18 16 1
18 17 10
19 0 9
19 1 1
19 2 2
19 3 9
19 4 8
19 5 2
19 6 3
19 7 9
19 8 6
19 9 2
19 10 3
19 11 10
19 12 8
19 13 8
19 14 8
19 15 5
19 16 7
19 17 7
19 18 10
20 0 6
20 1 2
20 2 5
20 3 4
20 4 1
20 5 7
20 6 9
20 7 5
20 8 7
20 9 9
20 10 2
20 11 10
20 12 7
20 13 4
20 14 7
20 15 8
20 16 1
20 17 7
20 18 4
20 19 2
21 0 7
21 1 10
21 2 4
21 3 5
21 4 2
21 5 7
21 6 5
21 7 7
21 8 9
21 9 8
21 10 10
21 11 8
21 12 5
21 13 6
21 14 10
21 15 8
21 16 9
21 17 8
21 18 1
21 19 3
21 20 8
22 0 5
22 1 8
22 2 8
22 3 3
22 4 4
22 5 9
22 6 1
22 7 4
22 8 9
22 9 3
22 10 6
22 11 10
22 12 5
22 13 2
22 14 7
22 15 9
22 16 3
22 17 7
22 18 4
22 19 5
22 20 6
22 21 5
23 0 4
23 1 4
23 2 9
23 3 10
23 4 8
23 5 3
23 6 1
23 7 10
23 8 1
23 9 10
23 10 3
23 11 1
23 12 2
23 13 5
23 14 1
23 15 8
23 16 7
23 17 4
23 18 8
23 19 4
23 20 8
23 21 8
23 22 3
24 0 6
24 1 1
24 2 5
24 3 4
24 4 3
24 5 6
24 6 4
24 7 3
24 8 3
24 9 2
24 10 7
24 11 3
24 12 9
24 13 5
24 14 1
24 15 7
24 16 3
24 17 2
24 18 10
24 19 6
24 20 5
24 21 9
24 22 3
24 23 6
25 0 3
25 1 9
25 2 2
25 3 8
25 4 4
25 5 10
25 6 6
25 7 6
25 8 10
25 9 6
25 10 5
25 11 6
25 12 3
25 13 6
25 14 2
25 15 6
25 16 4
25 17 1
25 18 6
25 19 6
25 20 1
25 21 4
25 22 9
25 23 4
25 24 4
26 0 7
26 1 5
26 2 8
26 3 1
26 4 10
26 5 5
26 6 10
26 7 4
26 8 1
26 9 4
26 10 7
26 11 8
26 12 1
26 13 10
26 14 9
26 15 2
26 16 2
26 17 5
26 18 6
26 19 5
26 20 6
26 21 6
26 22 8
26 23 3
26 24 4
26 25 3
27 0 3
27 1 7
27 2 7
27 3 9
27 4 7
27 5 3
27 6 9
27 7 4
27 8 3
27 9 6
27 10 8
27 11 7
27 12 7
27 13 1
27 14 9
27 15 7
27 16 9
27 17 6
27 18 4
27 19 1
27 20 4
27 21 8
27 22 9
27 23 10
27 24 5
27 25 10
27 26 1
28 0 6
28 1 10
28 2 8
28 3 5
28 4 1
28 5 1
28 6 1
28 7 10
28 8 3
28 9 5
28 10 8
28 11 3
28 12 7
28 13 9
28 14 1
28 15 8
28 16 6
28 17 1
28 18 1
28 19 10
28 20 4
28 21 2
28 22 1
28 23 9
28 24 10
28 25 5
28 26 7
28 27 3
29 0 8
29 1 5
29 2 1
29 3 7
29 4 5
29 5 10
29 6 9
29 7 1
29 8 5
29 9 9
29 10 8
29 11 8
29 12 1
29 13 4
29 14 3
29 15 10
29 16 1
29 17 7
29 18 6
29 19 8
29 20 9
29 21 5
29 22 10
29 23 8
29 24 4
29 25 10
29 26 4
29 27 5
29 28 3
30 0 7
30 1 3
30 2 3
30 3 8
30 4 7
30 5 9
30 6 2
30 7 10
30 8 10
30 9 7
30 10 6
30 11 8
30 12 7
30 13 8
30 14 3
30 15 6
30 16 8
30 17 8
30 18 3
30 19 9
30 20 7
30 21 4
30 22 10
30 23 10
30 24 5
30 25 9
30 26 10
30 27 5
30 28 1
30 29 10
31 0 2
31 1 6
31 2 4
31 3 5
31 4 6
31 5 4
31 6 5
31 7 7
31 8 4
31 9 7
31 10 1
31 11 8
31 12 10
31 13 5
31 14 2
31 15 6
31 16 10
31 17 4
31 18 3
31 19 3
31 20 8
31 21 10
31 22 5
31 23 5
31 24 3
31 25 3
31 26 7
31 27 8
31 28 5
31 29 1
31 30 8
32 0 5
32 1 9
32 2 10
32 3 8
32 4 9
32 5 6
32 6 6
32 7 5
32 8 10
32 9 4
32 10 6
32 11 1
32 12 8
32 13 2
32 14 2
32 15 8
32 16 5
32 17 8
32 18 5
32 19 3
32 20 7
32 21 4
32 22 4
32 23 7
32 24 3
32 25 4
32 26 3
32 27 4
32 28 3
32 29 8
32 30 2
32 31 10
33 0 4
33 1 10
33 2 5
33 3 6
33 4 1
33 5 8
33 6 3
33 7 9
33 8 9
33 9 3
33 10 3
33 11 8
33 12 5
33 13 9
33 14 2
33 15 4
33 16 4
33 17 5
33 18 7
33 19 10
33 20 1
33 21 4
33 22 2
33 23 8
33 24 10
33 25 9
33 26 9
33 27 4
33 28 8
33 29 5
33 30 4
33 31 8
33 32 6
34 0 4
34 1 9
34 2 9
34 3 5
34 4 7
34 5 10
34 6 7
34 7 1
34 8 3
34 9 7
34 10 4
34 11 2
34 12 3
34 13 2
34 14 1
34 15 7
34 16 10
34 17 4
34 18 6
34 19 4
34 20 2
34 21 6
34 22 7
34 23 1
34 24 4
34 25 2
34 26 3
34 27 3
34 28 7
34 29 5
34 30 10
34 31 2
34 32 7
34 33 3
35 0 3
35 1 10
35 2 1
35 3 8
35 4 5
35 5 1
35 6 6
35 7 9
35 8 2
35 9 9
35 10 7
35 11 6
35 12 10
35 13 6
35 14 6
35 15 1
35 16 4
35 17 3
35 18 6
35 19 3
35 20 9
35 21 6
35 22 10
35 23 4
35 24 7
35 25 7
35 26 6
35 27 2
35 28 9
35 29 10
35 30 10
35 31 8
35 32 1
35 33 6
35 34 3
36 0 3
36 1 9
36 2 2
36 3 10
36 4 6
36 5 2
36 6 2
36 7 10
36 8 7
36 9 6
36 10 8
36 11 5
36 12 2
36 13 10
36 14 8
36 15 9
36 16 6
36 17 10
36 18 3
36 19 9
36 20 8
36 21 1
36 22 1
36 23 2
36 24 2
36 25 7
36 26 1
36 27 7
36 28 3
36 29 4
36 30 9
36 31 1
36 32 3
36 33 9
36 34 8
36 35 6
37 0 6
37 1 9
37 2 7
37 3 6
37 4 10
37 5 7
37 6 5
37 7 10
37 8 7
37 9 4
37 10 4
37 11 10
37 12 4
37 13 7
37 14 10
37 15 2
37 16 4
37 17 4
37 18 8
37 19 9
37 20 1
37 21 7
37 22 9
37 23 1
37 24 10
37 25 4
37 26 1
37 27 2
37 28 5
37 29 4
37 30 6
37 31 1
37 32 4
37 33 6
37 34 1
37 35 8
37 36 2
38 0 6
38 1 4
38 2 6
38 3 7
38 4 2
38 5 6
38 6 7
38 7 6
38 8 4
38 9 4
38 10 5
38 11 5
38 12 7
38 13 5
38 14 4
38 15 6
38 16 3
38 17 3
38 18 8
38 19 9
38 20 5
38 21 4
38 22 10
38 23 7
38 24 1
38 25 8
38 26 1
38 27 3
38 28 8
38 29 4
38 30 7
38 31 1
38 32 7
38 33 3
38 34 1
38 35 9
38 36 8
38 37 2
39 0 9
39 1 1
39 2 5
39 3 7
39 4 2
39 5 2
39 6 9
39 7 4
39 8 9
39 9 3
39 10 1
39 11 9
39 12 8
39 13 10
39 14 4
39 15 6
39 16 2
39 17 3
39 18 1
39 19 10
39 20 1
39 21 5
39 22 9
39 23 7
39 24 8
39 25 3
39 26 8
39 27 7
39 28 8
39 29 9
39 30 5
39 31 3
39 32 4
39 33 8
39 34 7
39 35 3
39 36 1
39 37 7
39 38 3
40 0 6
40 1 3
40 2 5
40 3 3
40 4 10
40 5 7
40 6 3
40 7 2
40 8 1
40 9 5
40 10 8
40 11 3
40 12 5
40 13 8
40 14 9
40 15 5
40 16 9
40 17 4
40 18 1
40 19 1
40 20 3
40 21 6
40 22 10
40 23 7
40 24 2
40 25 4
40 26 2
40 27 10
40 28 10
40 29 8
40 30 9
40 31 2
40 32 8
40 33 5
40 34 6
40 35 8
40 36 8
40 37 9
40 38 9
40 39 9
41 0 2
41 1 1
41 2 9
41 3 5
41 4 5
41 5 1
41 6 2
41 7 10
41 8 5
41 9 7
41 10 3
41 11 9
41 12 2
41 13 2
41 14 9
41 15 10
41 16 1
41 17 6
41 18 2
41 19 7
41 20 6
41 21 4
41 22 3
41 23 1
41 24 9
41 25 10
41 26 2
41 27 1
41 28 8
41 29 5
41 30 5
41 31 9
41 32 8
41 33 7
41 34 6
41 35 6
41 36 3
41 37 3
41 38 1
41 39 1
41 40 9
42 0 1
42 1 1
42 2 8
42 3 8
42 4 4
42 5 8
42 6 3
42 7 7
42 8 3
42 9 3
42 10 1
42 11 5
42 12 6
42 13 3
42 14 4
42 15 10
42 16 10
42 17 3
42 18 8
42 19 6
42 20 9
42 21 1
42 22 10
42 23 4
42 24 7
42 25 5
42 26 7
42 27 3
42 28 4
42 29 8
42 30 2
42 31 5
42 32 10
42 33 4
42 34 10
42 35 2
42 36 1
42 37 1
42 38 2
42 39 10
42 40 4
42 41 8
43 0 10
43 1 3
43 2 7
43 3 3
43 4 10
43 5 6
43 6 3
43 7 9
43 8 4
43 9 4
43 10 5
43 11 5
43 12 9
43 13 3
43 14 2
43 15 6
43 16 4
43 17 4
43 18 9
43 19 3
43 20 8
43 21 8
43 22 4
43 23 9
43 24 4
43 25 1
43 26 3
43 27 10
43 28 8
43 29 6
43 30 1
43 31 1
43 32 3
43 33 6
43 34 6
43 35 1
43 36 10
43 37 3
43 38 9
43 39 3
43 40 8
43 41 7
43 42 1
44 0 4
44 1 4
44 2 5
44 3 7
44 4 8
44 5 6
44 6 6
44 7 6
44 8 6
44 9 4
44 10 8
44 11 6
44 12 3
44 13 6
44 14 2
44 15 6
44 16 8
44 17 2
44 18 8
44 19 2
44 20 6
44 21 1
44 22 4
44 23 5
44 24 3
44 25 6
44 26 8
44 27 8
44 28 1
44 29 3
44 30 10
44 31 10
44 32 3
44 33 1
44 34 3
44 35 3
44 36 1
44 37 3
44 38 9
44 39 9
44 40 10
44 41 7
44 42 7
44 43 9
